partD/函数分配算法/conjure-output/model000001-data-solution000001.eprime-solution
language ESSENCE' 1.0

letting assignment_Function1DPartial_Flags be
        [true, false, false, true, true, true, false, true, true, false, false; int(1..11)]
letting assignment_Function1DPartial_Values be [1, 0, 0, 1, 1, 2, 0, 2, 2, 0, 0; int(1..11)]
