partD/函数分配算法/conjure-output/model000001-data-solution000001.solution
language Essence 1.3

letting assignment be function(1 --> 1, 4 --> 1, 5 --> 1, 6 --> 2, 8 --> 2, 9 --> 2)
